puzzle.txt
#kenken www.kenkenpuzzle.com Puzzle 18895 7x7 Medium
r1.9+,r2.13+,r2,r3.9+,r3,r3,r4.8+
r1,r5.14+,r5,r6.13+,r6,r3,r4
r7.3+,r5,r5,r6,r8.13+,r8,r9.14+
r7,r10.12+,r10,r11.12+,r12.10+,r9,r9
r13.12+,r13,r14.3+,r11,r12,r9,r15.6+
r16.13+,r13,r14,r11,r17.10+,r17,r15
r16,r18.5+,r18,r19.7+,r19,r20.10+,r20
